(set-logic HORN)
(set-info :source |
    Benchmark: C_VC
    Output by Princess (http://www.philipp.ruemmer.org/princess.shtml)
|)
(set-info :status unsat)
;===============================================================================
; Encoding of Heap sorts and operations
;-------------------------------------------------------------------------------
(define-sort Addr() Int)
(declare-datatypes ((AddrRange 0))
                   (((AddrRange (AddrRangeStart Addr) (AddrRangeSize Int)))))

(declare-datatypes ((HeapObject 0))
                   (((O_Int (getInt Int)) (O_UInt (getUInt Int)) (O_Addr (getAddr Addr)) (defObj))))
(declare-datatypes ((BatchAllocResHeap 0) (AllocResHeap 0) (Heap 0))
                   (((BatchAllocResHeap   (newBatchHeap Heap) (newAddrRange AddrRange)))
                   ((AllocResHeap   (newHeap Heap) (newAddr Addr)))
                    ((HeapCtor (HeapSize Int)
                               (HeapContents (Array Addr HeapObject))))))
(define-fun nullAddr  () Addr 0)
(define-fun validHeap     ((h Heap) (p Addr)) Bool
  (and (>= (HeapSize h) p) (> p 0)))
(define-fun emptyHeap () Heap (
  HeapCtor 0 (( as const (Array Addr HeapObject)) defObj)))
(define-fun readHeap ((h Heap) (p Addr)) HeapObject
  (ite (validHeap h p)
       (select (HeapContents h) p)
       defObj))
(define-fun writeHeap ((h Heap) (p Addr) (o HeapObject)) Heap
  (ite (validHeap h p)
       (HeapCtor (HeapSize h) (store (HeapContents h) p o))
       h))
(define-fun allocHeap   ((h Heap) (o HeapObject)) AllocResHeap
  (AllocResHeap (HeapCtor (+ 1 (HeapSize h))
                    (store (HeapContents h) (+ 1 (HeapSize h)) o))
          (+ 1 (HeapSize h))))
(define-fun Heap-eq     ((h1 Heap) (h2 Heap)) Bool
  (forall ((p Addr))
          (and (= (validHeap h1 p) (validHeap h2 p))
               (= (readHeap h1 p) (readHeap h2 p)))))
(define-fun nthAddrRange((ar AddrRange) (n Int)) Addr
  (ite (and (>= n 0) (< n (AddrRangeSize ar)))
       (+ (AddrRangeStart ar) n)
       nullAddr))
(define-fun withinHeap ((ar AddrRange ) (p Addr)) Bool
  (and (>= p (AddrRangeStart ar)) (< p (+ (AddrRangeStart ar) (AddrRangeSize ar)))))

(declare-fun batchAllocHeap     (Heap Heap HeapObject Int Int) Bool)
(declare-fun batchAllocPostHeap (Heap Heap HeapObject Int) Bool)

(assert (forall ((h1 Heap) (h2 Heap) (o HeapObject) (n1 Int) (n2 Int))
                (=> (and (> n2 0) (batchAllocHeap h1 h2 o n1 n2))
                   (batchAllocHeap h1 (newHeap (allocHeap h2 o)) o n1 (- n2 1)))))
(assert (forall ((h1 Heap) (h2 Heap) (o HeapObject) (n1 Int) (n2 Int))
                (=> (and (<= n2 0) (batchAllocHeap h1 h2 o n1 n2))
                   (batchAllocPostHeap h1 h2 o n1))))

(declare-fun batchWriteHeap     (Heap Heap Addr Addr HeapObject Int Int) Bool)
(declare-fun batchWritePostHeap (Heap Heap Addr HeapObject Int) Bool)

(assert (forall ((h1 Heap) (h2 Heap) (a1 Addr) (a2 Addr) (o HeapObject) (n1 Int) (n2 Int))
                (=> (and (> n2 0) (batchWriteHeap h1 h2 a1 a2 o n1 n2))
                   (batchWriteHeap h1 (writeHeap h2 a2 o) a1 (+ a2 1) o n1 (- n2 1)))))
(assert (forall ((h1 Heap) (h2 Heap) (a1 Addr) (a2 Addr) (o HeapObject) (n1 Int) (n2 Int))
                (=> (and (<= n2 0) (batchWriteHeap h1 h2 a1 a2 o n1 n2))
                   (batchWritePostHeap h1 h2 a1 o n1))))

;===============================================================================
(declare-fun inv_main12 (Heap Int Int Int Int Int AddrRange AddrRange Int) Bool)
(declare-fun inv_main13 (Heap Int Int Int Int Int AddrRange AddrRange Int) Bool)
(declare-fun inv_main19 (Heap Int Int Int Int Int AddrRange AddrRange Int Int) Bool)
(declare-fun inv_main21 (Heap Int Int Int Int Int AddrRange AddrRange Int Int) Bool)
(declare-fun inv_main24 (Heap Int Int Int Int Int AddrRange AddrRange Int Int Int) Bool)
(declare-fun inv_main29 (Heap Int Int Int Int Int AddrRange AddrRange Int Int AddrRange Int Int Int) Bool)
(declare-fun inv_main34 (Heap Int Int Int Int Int AddrRange AddrRange Int Int AddrRange Int Int) Bool)
(declare-fun inv_main39 (Heap Int Int Int Int Int AddrRange AddrRange Int Int) Bool)
(declare-fun inv_main40 (Heap Int Int Int Int Int AddrRange AddrRange Int Int) Bool)
(declare-fun inv_main51 (Heap Int Int Int Int Int AddrRange AddrRange Int Int) Bool)
(declare-fun inv_main54 (Heap Int Int Int Int Int AddrRange AddrRange Int Int Int) Bool)
(declare-fun inv_main58 (Heap Int Int Int Int Int AddrRange AddrRange Int Int) Bool)
(declare-fun inv_main6 (Heap Int Int Int Int Int AddrRange AddrRange Int) Bool)
(declare-fun inv_main8 (Heap Int Int Int Int Int AddrRange AddrRange Int) Bool)
(assert (forall ((var0 Int) (var1 AddrRange) (var2 AddrRange) (var3 Int) (var4 Int) (var5 Int) (var6 Int) (var7 Int) (var8 Int) (var9 Heap) (var10 AddrRange) (var11 Int) (var12 Int) (var13 Int) (var14 Int) (var15 Int) (var16 Int) (var17 Int) (var18 Int) (var19 Heap) (var20 Int) (var21 Heap)) (or (not (and (and (batchAllocHeapPostHeap emptyHeap var19 (O_Int var18) var20) (batchAllocHeapPostHeap emptyHeap var9 (O_Int var8) var17)) (and (and (and (and (and (and (and (and (and (and (and (and (and (and (and (and (= var10 (AddrRange (ite (<= 0 (+ var20 (- 1))) (+ (HeapSize emptyHeap) 1) (HeapSize emptyHeap)) var20)) (= var11 0)) (= var12 0)) (= var14 var13)) (= var16 var15)) (= var17 var20)) true) (= var20 100000)) (= var21 emptyHeap)) (= var1 (AddrRange (ite (<= 0 (+ var17 (- 1))) (+ (HeapSize emptyHeap) 1) (HeapSize emptyHeap)) var17))) (= var2 var10)) (= var3 var11)) (= var4 var12)) (= var5 var14)) (= var6 var16)) (= var7 var17)) true))) (inv_main6 var9 var7 var6 var5 var4 var3 var2 var1 var0))))
(assert (forall ((var0 Int) (var1 AddrRange) (var2 AddrRange) (var3 Int) (var4 Int) (var5 Int) (var6 Int) (var7 Int) (var8 Int) (var9 Heap) (var10 AddrRange) (var11 Int) (var12 Int) (var13 Int) (var14 Int) (var15 Int) (var16 Int) (var17 Int) (var18 Int) (var19 Heap) (var20 Int) (var21 Heap)) (or (not (and (and (and (and (and (and (and (and (and (and (and (and (and (and (and (and (= var10 (AddrRange (ite (<= 0 (+ var20 (- 1))) (+ (HeapSize emptyHeap) 1) (HeapSize emptyHeap)) var20)) (= var11 0)) (= var12 0)) (= var14 var13)) (= var16 var15)) (= var17 var20)) true) (= var20 100000)) (= var21 emptyHeap)) (= var1 (AddrRange (ite (<= 0 (+ var17 (- 1))) (+ (HeapSize emptyHeap) 1) (HeapSize emptyHeap)) var17))) (= var2 var10)) (= var3 var11)) (= var4 var12)) (= var5 var14)) (= var6 var16)) (= var7 var17)) true)) (batchAllocHeap emptyHeap emptyHeap (O_Int var18) var20 var20))))
(assert (forall ((var0 Int) (var1 AddrRange) (var2 AddrRange) (var3 Int) (var4 Int) (var5 Int) (var6 Int) (var7 Int) (var8 Int) (var9 Heap) (var10 AddrRange) (var11 Int) (var12 Int) (var13 Int) (var14 Int) (var15 Int) (var16 Int) (var17 Int) (var18 Int) (var19 Heap) (var20 Int) (var21 Heap)) (or (not (and (and (and (and (and (and (and (and (and (and (and (and (and (and (and (and (= var10 (AddrRange (ite (<= 0 (+ var20 (- 1))) (+ (HeapSize emptyHeap) 1) (HeapSize emptyHeap)) var20)) (= var11 0)) (= var12 0)) (= var14 var13)) (= var16 var15)) (= var17 var20)) true) (= var20 100000)) (= var21 emptyHeap)) (= var1 (AddrRange (ite (<= 0 (+ var17 (- 1))) (+ (HeapSize emptyHeap) 1) (HeapSize emptyHeap)) var17))) (= var2 var10)) (= var3 var11)) (= var4 var12)) (= var5 var14)) (= var6 var16)) (= var7 var17)) true)) (batchAllocHeap emptyHeap emptyHeap (O_Int var8) var17 var17))))
(assert (forall ((var0 Int) (var1 Int) (var2 Int) (var3 AddrRange) (var4 AddrRange) (var5 Int) (var6 Int) (var7 Int) (var8 Int) (var9 Int) (var10 Heap)) (or (not (and (inv_main24 var10 var9 var8 var7 var6 var5 var4 var3 var2 var1 var0) (not (= var0 1)))) (inv_main21 var10 var9 var8 var7 var6 var5 var4 var3 var2 var1))))
(assert (forall ((var0 Int) (var1 Int) (var2 AddrRange) (var3 AddrRange) (var4 Int) (var5 Int) (var6 Int) (var7 Int) (var8 Int) (var9 Heap)) (or (not (and (inv_main51 var9 var8 var7 var6 var5 var4 var3 var2 var1 var0) (is-O_Int (readHeap var9 (nthAddrRange var3 (+ var7 1)))))) (inv_main54 var9 var8 var7 var6 var5 var4 var3 var2 var1 var0 (getInt (readHeap var9 (nthAddrRange var3 (+ var7 1))))))))
(assert (forall ((var0 AddrRange) (var1 Int) (var2 Int) (var3 AddrRange) (var4 AddrRange) (var5 Int) (var6 Int) (var7 Int) (var8 Int) (var9 Int) (var10 Heap) (var11 Int) (var12 Int) (var13 Int) (var14 Int) (var15 Int) (var16 Int) (var17 Int) (var18 AddrRange) (var19 Int) (var20 Int) (var21 AddrRange) (var22 AddrRange) (var23 Int) (var24 Int) (var25 Int) (var26 Int) (var27 Int) (var28 Heap)) (or (not (and (and (and (and (and (and (and (and (and (and (and (and (and (and (and (and (and (and (inv_main29 var28 var27 var26 var25 var24 var23 var22 var21 var20 var19 var18 var17 var16 var15) (= var12 (getInt (readHeap var28 (nthAddrRange var18 var15))))) (= var13 var15)) (= var11 var16)) (= var14 var17)) (= var0 var18)) (= var1 var19)) (= var2 var20)) (= var3 var21)) (= var4 var22)) (= var5 var23)) (= var6 var24)) (= var7 var25)) (= var8 var26)) (= var9 var27)) (= var10 var28)) (is-O_Int (readHeap var28 (nthAddrRange var18 var15)))) (not (= var12 var11))) (<= 0 (+ (+ (* (- 1) (+ var13 1)) var14) (* (- 1) 1))))) (inv_main29 var10 var9 var8 var7 var6 var5 var4 var3 var2 var1 var0 var14 var11 (+ var13 1)))))
(assert (forall ((var0 Int) (var1 AddrRange) (var2 Int) (var3 Int) (var4 AddrRange) (var5 AddrRange) (var6 Int) (var7 Int) (var8 Int) (var9 Int) (var10 Int) (var11 Heap) (var12 Int) (var13 Int) (var14 Int) (var15 AddrRange) (var16 AddrRange) (var17 Int) (var18 Int) (var19 Int) (var20 Int) (var21 Int) (var22 Heap)) (or (not (and (and (and (and (and (and (and (and (and (and (and (and (and (and (and (inv_main19 var22 var21 var20 var19 var18 var17 var16 var15 var14 var13) (= var0 (getInt (readHeap var22 (nthAddrRange var15 var13))))) (= var12 var18)) (= var1 var16)) (= var2 var13)) (= var3 var14)) (= var4 var15)) (= var5 var16)) (= var6 var17)) (= var7 var18)) (= var8 var19)) (= var9 var20)) (= var10 var21)) (= var11 var22)) (is-O_Int (readHeap var22 (nthAddrRange var15 var13)))) (<= 0 (+ var12 (* (- 1) 1))))) (inv_main29 var11 var10 var9 var8 var7 var6 var5 var4 var3 var2 var1 var12 var0 0))))
(assert (forall ((var0 Int) (var1 AddrRange) (var2 AddrRange) (var3 Int) (var4 Int) (var5 Int) (var6 Int) (var7 Int) (var8 Heap)) (or (not (inv_main6 var8 var7 var6 var5 var4 var3 var2 var1 var0)) (inv_main8 var8 var7 0 var5 var4 var3 var2 var1 var0))))
(assert (forall ((var0 Int) (var1 AddrRange) (var2 AddrRange) (var3 Int) (var4 Int) (var5 Int) (var6 Int) (var7 Int) (var8 Int) (var9 Heap) (var10 Int) (var11 AddrRange) (var12 AddrRange) (var13 Int) (var14 Int) (var15 Int) (var16 Int) (var17 Int) (var18 Heap)) (or (not (and (and (and (and (and (and (and (and (and (and (and (inv_main13 var18 var17 var16 var15 var14 var13 var12 var11 var10) (= var0 var10)) (= var1 var11)) (= var2 var12)) (= var3 var13)) (= var4 var14)) (= var5 var15)) (= var6 var16)) (= var7 var17)) (= var9 (writeHeap var18 (nthAddrRange var11 var16) (O_Int var8)))) (is-O_Int (readHeap var18 (nthAddrRange var11 var16)))) (is-O_Int (readHeap var18 (nthAddrRange var11 var16))))) (inv_main8 var9 var7 (+ var6 1) var5 var4 var3 var2 var1 var0))))
(assert (forall ((var0 Int) (var1 Int) (var2 AddrRange) (var3 Int) (var4 AddrRange) (var5 AddrRange) (var6 Int) (var7 Int) (var8 Int) (var9 Int) (var10 Heap) (var11 Int) (var12 Int) (var13 Int) (var14 Int) (var15 AddrRange) (var16 Int) (var17 Int) (var18 AddrRange) (var19 AddrRange) (var20 Int) (var21 Int) (var22 Int) (var23 Int) (var24 Int) (var25 Heap)) (or (not (and (and (and (and (and (and (and (and (and (and (and (and (and (and (and (and (inv_main34 var25 var24 var23 var22 var21 var20 var19 var18 var17 var16 var15 var14 var13) (= var0 var13)) (= var1 var14)) (= var2 var15)) (= var11 var16)) (= var3 var17)) (= var4 var18)) (= var5 var19)) (= var6 var20)) (= var7 var21)) (= var8 var22)) (= var9 var23)) (= var12 var24)) (= var10 (writeHeap var25 (nthAddrRange var15 var14) (O_Int var13)))) (is-O_Int (readHeap var25 (nthAddrRange var15 var14)))) (is-O_Int (readHeap var25 (nthAddrRange var15 var14)))) (<= 0 (+ (+ (* (- 1) (+ var11 1)) var12) (* (- 1) 1))))) (inv_main19 var10 var12 var9 var8 (+ var1 1) var6 var5 var4 var3 (+ var11 1)))))
(assert (forall ((var0 Int) (var1 Int) (var2 Int) (var3 AddrRange) (var4 AddrRange) (var5 Int) (var6 Int) (var7 Int) (var8 Int) (var9 Int) (var10 Heap)) (or (not (and (and (inv_main24 var10 var9 var8 var7 var6 var5 var4 var3 var2 var1 var0) (= var0 1)) (<= 0 (+ (+ (* (- 1) (+ var1 1)) var9) (* (- 1) 1))))) (inv_main19 var10 var9 var8 var7 var6 var5 var4 var3 var2 (+ var1 1)))))
(assert (forall ((var0 Int) (var1 Int) (var2 AddrRange) (var3 AddrRange) (var4 Int) (var5 Int) (var6 Int) (var7 Int) (var8 Int) (var9 Heap)) (or (not (and (and (inv_main8 var9 var8 var7 var6 var5 var4 var3 var2 var1) (not (<= 0 (+ (+ (* (- 1) var7) var8) (* (- 1) 1))))) (<= 0 (+ var8 (* (- 1) 1))))) (inv_main19 var9 var8 var7 var6 var5 var4 var3 var2 var0 0))))
(assert (forall ((var0 Int) (var1 Int) (var2 AddrRange) (var3 AddrRange) (var4 Int) (var5 Int) (var6 Int) (var7 Int) (var8 Int) (var9 Heap)) (or (not (and (and (inv_main58 var9 var8 var7 var6 var5 var4 var3 var2 var1 var0) (is-O_Int (readHeap var9 (nthAddrRange var3 var7)))) (<= 0 (+ (+ (+ (* (- 1) (+ var7 1)) (* (- 1) 1)) var8) (* (- 1) 1))))) (inv_main58 var9 var8 (+ var7 1) var6 var5 var4 var3 var2 var1 var0))))
(assert (forall ((var0 Int) (var1 Int) (var2 AddrRange) (var3 AddrRange) (var4 Int) (var5 Int) (var6 Int) (var7 Heap) (var8 Int) (var9 Int) (var10 Int) (var11 Int) (var12 Int) (var13 AddrRange) (var14 AddrRange) (var15 Int) (var16 Int) (var17 Int) (var18 Int) (var19 Int) (var20 Heap)) (or (not (and (and (and (and (and (and (and (and (and (and (and (and (and (and (and (inv_main39 var20 var19 var18 var17 var16 var15 var14 var13 var12 var11) (or (and (<= 0 (+ (+ (* (- 1) var18) var19) (* (- 1) 1))) (= var8 1)) (and (not (<= 0 (+ (+ (* (- 1) var18) var19) (* (- 1) 1)))) (= var8 0)))) (= var0 var11)) (= var1 var12)) (= var2 var13)) (= var3 var14)) (= var9 var15)) (= var4 var16)) (= var5 var17)) (= var6 var18)) (= var10 var19)) (= var7 var20)) (or (= var8 0) (= var9 1))) (not (= var9 1))) (= var9 1)) (<= 0 (+ (+ (* (- 1) 1) var10) (* (- 1) 1))))) (inv_main58 var7 var10 0 var5 var4 var9 var3 var2 var1 var0))))
(assert (forall ((var0 Int) (var1 Int) (var2 AddrRange) (var3 AddrRange) (var4 Int) (var5 Int) (var6 Heap) (var7 Int) (var8 Int) (var9 Int) (var10 Int) (var11 Int) (var12 Int) (var13 AddrRange) (var14 AddrRange) (var15 Int) (var16 Int) (var17 Int) (var18 Int) (var19 Int) (var20 Heap)) (or (not (and (and (and (and (and (and (and (and (and (and (and (and (and (and (and (and (inv_main39 var20 var19 var18 var17 var16 var15 var14 var13 var12 var11) (or (and (<= 0 (+ (+ (* (- 1) var18) var19) (* (- 1) 1))) (= var7 1)) (and (not (<= 0 (+ (+ (* (- 1) var18) var19) (* (- 1) 1)))) (= var7 0)))) (= var0 var11)) (= var1 var12)) (= var2 var13)) (= var3 var14)) (= var9 var15)) (= var4 var16)) (= var8 var17)) (= var5 var18)) (= var10 var19)) (= var6 var20)) (or (= var7 0) (= var9 1))) (= var9 1)) (not (<= 0 (+ (+ (+ (* (- 1) var8) (* (- 1) 1)) var10) (* (- 1) 1))))) (= var9 1)) (<= 0 (+ (+ (* (- 1) 1) var10) (* (- 1) 1))))) (inv_main58 var6 var10 0 var8 var4 var9 var3 var2 var1 var0))))
(assert (forall ((var0 Int) (var1 Int) (var2 AddrRange) (var3 AddrRange) (var4 Int) (var5 Int) (var6 Heap) (var7 Int) (var8 Int) (var9 Int) (var10 Int) (var11 Int) (var12 Int) (var13 AddrRange) (var14 AddrRange) (var15 Int) (var16 Int) (var17 Int) (var18 Int) (var19 Int) (var20 Heap)) (or (not (and (and (and (and (and (and (and (and (and (and (and (and (and (and (and (inv_main54 var20 var19 var18 var17 var16 var15 var14 var13 var12 var11 var10) (= var0 var11)) (= var1 var12)) (= var2 var13)) (= var3 var14)) (= var8 var15)) (= var4 var16)) (= var5 var17)) (= var7 var18)) (= var9 var19)) (= var6 (writeHeap var20 (nthAddrRange var14 var18) (O_Int var10)))) (is-O_Int (readHeap var20 (nthAddrRange var14 var18)))) (is-O_Int (readHeap var20 (nthAddrRange var14 var18)))) (not (<= 0 (+ (+ (+ (* (- 1) (+ var7 1)) (* (- 1) 1)) var9) (* (- 1) 1))))) (= var8 1)) (<= 0 (+ (+ (* (- 1) 1) var9) (* (- 1) 1))))) (inv_main58 var6 var9 0 var5 var4 var8 var3 var2 var1 var0))))
(assert (forall ((var0 Int) (var1 AddrRange) (var2 AddrRange) (var3 Int) (var4 Int) (var5 Int) (var6 Int) (var7 Int) (var8 Int) (var9 Heap) (var10 Int) (var11 AddrRange) (var12 AddrRange) (var13 Int) (var14 Int) (var15 Int) (var16 Int) (var17 Int) (var18 Heap)) (or (not (and (and (and (and (and (and (and (and (and (and (and (inv_main12 var18 var17 var16 var15 var14 var13 var12 var11 var10) (= var0 var10)) (= var1 var11)) (= var2 var12)) (= var3 var13)) (= var4 var14)) (= var5 var15)) (= var6 var16)) (= var7 var17)) (= var9 (writeHeap var18 (nthAddrRange var12 var16) (O_Int var8)))) (is-O_Int (readHeap var18 (nthAddrRange var12 var16)))) (is-O_Int (readHeap var18 (nthAddrRange var12 var16))))) (inv_main13 var9 var7 var6 var5 var4 var3 var2 var1 var0))))
(assert (forall ((var0 Int) (var1 Int) (var2 AddrRange) (var3 Int) (var4 Int) (var5 AddrRange) (var6 AddrRange) (var7 Int) (var8 Int) (var9 Int) (var10 Int) (var11 Int) (var12 Heap) (var13 Int) (var14 Int) (var15 Int) (var16 Int) (var17 Int) (var18 AddrRange) (var19 Int) (var20 Int) (var21 AddrRange) (var22 AddrRange) (var23 Int) (var24 Int) (var25 Int) (var26 Int) (var27 Int) (var28 Heap)) (or (not (and (and (and (and (and (and (and (and (and (and (and (and (and (and (and (and (and (inv_main29 var28 var27 var26 var25 var24 var23 var22 var21 var20 var19 var18 var17 var16 var15) (= var14 (getInt (readHeap var28 (nthAddrRange var18 var15))))) (= var0 var15)) (= var13 var16)) (= var1 var17)) (= var2 var18)) (= var3 var19)) (= var4 var20)) (= var5 var21)) (= var6 var22)) (= var7 var23)) (= var8 var24)) (= var9 var25)) (= var10 var26)) (= var11 var27)) (= var12 var28)) (is-O_Int (readHeap var28 (nthAddrRange var18 var15)))) (= var14 var13))) (inv_main24 var12 var11 var10 var9 var8 var7 var6 var5 var4 var3 1))))
(assert (forall ((var0 AddrRange) (var1 Int) (var2 Int) (var3 AddrRange) (var4 AddrRange) (var5 Int) (var6 Int) (var7 Int) (var8 Int) (var9 Int) (var10 Heap) (var11 Int) (var12 Int) (var13 Int) (var14 Int) (var15 Int) (var16 Int) (var17 Int) (var18 AddrRange) (var19 Int) (var20 Int) (var21 AddrRange) (var22 AddrRange) (var23 Int) (var24 Int) (var25 Int) (var26 Int) (var27 Int) (var28 Heap)) (or (not (and (and (and (and (and (and (and (and (and (and (and (and (and (and (and (and (and (and (inv_main29 var28 var27 var26 var25 var24 var23 var22 var21 var20 var19 var18 var17 var16 var15) (= var12 (getInt (readHeap var28 (nthAddrRange var18 var15))))) (= var13 var15)) (= var11 var16)) (= var14 var17)) (= var0 var18)) (= var1 var19)) (= var2 var20)) (= var3 var21)) (= var4 var22)) (= var5 var23)) (= var6 var24)) (= var7 var25)) (= var8 var26)) (= var9 var27)) (= var10 var28)) (is-O_Int (readHeap var28 (nthAddrRange var18 var15)))) (not (= var12 var11))) (not (<= 0 (+ (+ (* (- 1) (+ var13 1)) var14) (* (- 1) 1)))))) (inv_main24 var10 var9 var8 var7 var6 var5 var4 var3 var2 var1 0))))
(assert (forall ((var0 Int) (var1 AddrRange) (var2 Int) (var3 Int) (var4 AddrRange) (var5 AddrRange) (var6 Int) (var7 Int) (var8 Int) (var9 Int) (var10 Int) (var11 Heap) (var12 Int) (var13 Int) (var14 Int) (var15 AddrRange) (var16 AddrRange) (var17 Int) (var18 Int) (var19 Int) (var20 Int) (var21 Int) (var22 Heap)) (or (not (and (and (and (and (and (and (and (and (and (and (and (and (and (and (and (inv_main19 var22 var21 var20 var19 var18 var17 var16 var15 var14 var13) (= var0 (getInt (readHeap var22 (nthAddrRange var15 var13))))) (= var12 var18)) (= var1 var16)) (= var2 var13)) (= var3 var14)) (= var4 var15)) (= var5 var16)) (= var6 var17)) (= var7 var18)) (= var8 var19)) (= var9 var20)) (= var10 var21)) (= var11 var22)) (is-O_Int (readHeap var22 (nthAddrRange var15 var13)))) (not (<= 0 (+ var12 (* (- 1) 1)))))) (inv_main24 var11 var10 var9 var8 var7 var6 var5 var4 var3 var2 0))))
(assert (forall ((var0 Int) (var1 AddrRange) (var2 AddrRange) (var3 Int) (var4 Int) (var5 Int) (var6 Int) (var7 Int) (var8 Heap)) (or (not (and (inv_main8 var8 var7 var6 var5 var4 var3 var2 var1 var0) (<= 0 (+ (+ (* (- 1) var6) var7) (* (- 1) 1))))) (inv_main12 var8 var7 var6 var5 var4 var3 var2 var1 var0))))
(assert (forall ((var0 Int) (var1 Int) (var2 AddrRange) (var3 AddrRange) (var4 Int) (var5 Int) (var6 Heap) (var7 Int) (var8 Int) (var9 Int) (var10 Int) (var11 Int) (var12 Int) (var13 AddrRange) (var14 AddrRange) (var15 Int) (var16 Int) (var17 Int) (var18 Int) (var19 Int) (var20 Heap)) (or (not (and (and (and (and (and (and (and (and (and (and (and (and (and (and (inv_main39 var20 var19 var18 var17 var16 var15 var14 var13 var12 var11) (or (and (<= 0 (+ (+ (* (- 1) var18) var19) (* (- 1) 1))) (= var7 1)) (and (not (<= 0 (+ (+ (* (- 1) var18) var19) (* (- 1) 1)))) (= var7 0)))) (= var0 var11)) (= var1 var12)) (= var2 var13)) (= var3 var14)) (= var8 var15)) (= var4 var16)) (= var9 var17)) (= var5 var18)) (= var10 var19)) (= var6 var20)) (or (= var7 0) (= var8 1))) (= var8 1)) (<= 0 (+ (+ (+ (* (- 1) var9) (* (- 1) 1)) var10) (* (- 1) 1))))) (inv_main51 var6 var10 var9 var9 var4 var8 var3 var2 var1 var0))))
(assert (forall ((var0 Int) (var1 Int) (var2 AddrRange) (var3 AddrRange) (var4 Int) (var5 Int) (var6 Int) (var7 Heap) (var8 Int) (var9 Int) (var10 Int) (var11 Int) (var12 Int) (var13 AddrRange) (var14 AddrRange) (var15 Int) (var16 Int) (var17 Int) (var18 Int) (var19 Int) (var20 Heap)) (or (not (and (and (and (and (and (and (and (and (and (and (and (and (and (inv_main54 var20 var19 var18 var17 var16 var15 var14 var13 var12 var11 var10) (= var0 var11)) (= var1 var12)) (= var2 var13)) (= var3 var14)) (= var4 var15)) (= var5 var16)) (= var6 var17)) (= var8 var18)) (= var9 var19)) (= var7 (writeHeap var20 (nthAddrRange var14 var18) (O_Int var10)))) (is-O_Int (readHeap var20 (nthAddrRange var14 var18)))) (is-O_Int (readHeap var20 (nthAddrRange var14 var18)))) (<= 0 (+ (+ (+ (* (- 1) (+ var8 1)) (* (- 1) 1)) var9) (* (- 1) 1))))) (inv_main51 var7 var9 (+ var8 1) var6 var5 var4 var3 var2 var1 var0))))
(assert (forall ((var0 Int) (var1 Int) (var2 AddrRange) (var3 Int) (var4 AddrRange) (var5 AddrRange) (var6 Int) (var7 Int) (var8 Int) (var9 Int) (var10 Heap) (var11 Int) (var12 Int) (var13 Int) (var14 Int) (var15 AddrRange) (var16 Int) (var17 Int) (var18 AddrRange) (var19 AddrRange) (var20 Int) (var21 Int) (var22 Int) (var23 Int) (var24 Int) (var25 Heap)) (or (not (and (and (and (and (and (and (and (and (and (and (and (and (and (and (and (and (inv_main34 var25 var24 var23 var22 var21 var20 var19 var18 var17 var16 var15 var14 var13) (= var0 var13)) (= var1 var14)) (= var2 var15)) (= var11 var16)) (= var3 var17)) (= var4 var18)) (= var5 var19)) (= var6 var20)) (= var7 var21)) (= var8 var22)) (= var9 var23)) (= var12 var24)) (= var10 (writeHeap var25 (nthAddrRange var15 var14) (O_Int var13)))) (is-O_Int (readHeap var25 (nthAddrRange var15 var14)))) (is-O_Int (readHeap var25 (nthAddrRange var15 var14)))) (not (<= 0 (+ (+ (* (- 1) (+ var11 1)) var12) (* (- 1) 1)))))) (inv_main39 var10 var12 0 var8 (+ var1 1) var6 var5 var4 var3 (+ var11 1)))))
(assert (forall ((var0 Int) (var1 Int) (var2 Int) (var3 AddrRange) (var4 AddrRange) (var5 Int) (var6 Int) (var7 Int) (var8 Int) (var9 Int) (var10 Heap)) (or (not (and (and (inv_main24 var10 var9 var8 var7 var6 var5 var4 var3 var2 var1 var0) (= var0 1)) (not (<= 0 (+ (+ (* (- 1) (+ var1 1)) var9) (* (- 1) 1)))))) (inv_main39 var10 var9 0 var7 var6 var5 var4 var3 var2 (+ var1 1)))))
(assert (forall ((var0 Int) (var1 AddrRange) (var2 AddrRange) (var3 Int) (var4 Int) (var5 Int) (var6 Int) (var7 Int) (var8 Heap) (var9 Int) (var10 Int) (var11 Int) (var12 Int) (var13 AddrRange) (var14 AddrRange) (var15 Int) (var16 Int) (var17 Int) (var18 Int) (var19 Int) (var20 Heap)) (or (not (and (and (and (and (and (and (and (and (and (and (and (and (and (inv_main40 var20 var19 var18 var17 var16 var15 var14 var13 var12 var11) (= var10 (getInt (readHeap var20 (nthAddrRange var14 var18))))) (= var0 var11)) (= var9 var12)) (= var1 var13)) (= var2 var14)) (= var3 var15)) (= var4 var16)) (= var5 var17)) (= var6 var18)) (= var7 var19)) (= var8 var20)) (is-O_Int (readHeap var20 (nthAddrRange var14 var18)))) (not (= var10 var9)))) (inv_main39 var8 var7 (+ var6 1) var5 var4 var3 var2 var1 var9 var0))))
(assert (forall ((var0 Int) (var1 AddrRange) (var2 AddrRange) (var3 Int) (var4 Int) (var5 Int) (var6 Int) (var7 Int) (var8 Heap) (var9 Int) (var10 Int) (var11 Int) (var12 Int) (var13 AddrRange) (var14 AddrRange) (var15 Int) (var16 Int) (var17 Int) (var18 Int) (var19 Int) (var20 Heap)) (or (not (and (and (and (and (and (and (and (and (and (and (and (and (and (inv_main40 var20 var19 var18 var17 var16 var15 var14 var13 var12 var11) (= var10 (getInt (readHeap var20 (nthAddrRange var14 var18))))) (= var0 var11)) (= var9 var12)) (= var1 var13)) (= var2 var14)) (= var3 var15)) (= var4 var16)) (= var5 var17)) (= var6 var18)) (= var7 var19)) (= var8 var20)) (is-O_Int (readHeap var20 (nthAddrRange var14 var18)))) (= var10 var9))) (inv_main39 var8 var7 (+ var6 1) var6 var4 1 var2 var1 var9 var0))))
(assert (forall ((var0 Int) (var1 Int) (var2 AddrRange) (var3 AddrRange) (var4 Int) (var5 Int) (var6 Int) (var7 Int) (var8 Int) (var9 Heap)) (or (not (and (and (inv_main8 var9 var8 var7 var6 var5 var4 var3 var2 var1) (not (<= 0 (+ (+ (* (- 1) var7) var8) (* (- 1) 1))))) (not (<= 0 (+ var8 (* (- 1) 1)))))) (inv_main39 var9 var8 0 var6 var5 var4 var3 var2 var0 0))))
(assert (forall ((var0 Int) (var1 Int) (var2 AddrRange) (var3 AddrRange) (var4 Int) (var5 Int) (var6 Int) (var7 Int) (var8 Int) (var9 Heap)) (or (not (and (inv_main21 var9 var8 var7 var6 var5 var4 var3 var2 var1 var0) (is-O_Int (readHeap var9 (nthAddrRange var2 var0))))) (inv_main34 var9 var8 var7 var6 var5 var4 var3 var2 var1 var0 var3 var5 (getInt (readHeap var9 (nthAddrRange var2 var0)))))))
(assert (forall ((var0 Int) (var1 Int) (var2 AddrRange) (var3 AddrRange) (var4 Int) (var5 Int) (var6 Int) (var7 Int) (var8 Heap) (var9 Int) (var10 Int) (var11 Int) (var12 Int) (var13 AddrRange) (var14 AddrRange) (var15 Int) (var16 Int) (var17 Int) (var18 Int) (var19 Int) (var20 Heap)) (or (not (and (and (and (and (and (and (and (and (and (and (and (and (and (inv_main39 var20 var19 var18 var17 var16 var15 var14 var13 var12 var11) (or (and (<= 0 (+ (+ (* (- 1) var18) var19) (* (- 1) 1))) (= var10 1)) (and (not (<= 0 (+ (+ (* (- 1) var18) var19) (* (- 1) 1)))) (= var10 0)))) (= var0 var11)) (= var1 var12)) (= var2 var13)) (= var3 var14)) (= var9 var15)) (= var4 var16)) (= var5 var17)) (= var6 var18)) (= var7 var19)) (= var8 var20)) (not (= var9 1))) (not (= var10 0)))) (inv_main40 var8 var7 var6 var5 var4 var9 var3 var2 var1 var0))))
(assert (forall ((var0 Int) (var1 AddrRange) (var2 AddrRange) (var3 Int) (var4 Int) (var5 Int) (var6 Int) (var7 Int) (var8 Heap)) (not (and (inv_main12 var8 var7 var6 var5 var4 var3 var2 var1 var0) (not (is-O_Int (readHeap var8 (nthAddrRange var2 var6))))))))
(assert (forall ((var0 Int) (var1 AddrRange) (var2 AddrRange) (var3 Int) (var4 Int) (var5 Int) (var6 Int) (var7 Int) (var8 Heap)) (not (and (and (inv_main12 var8 var7 var6 var5 var4 var3 var2 var1 var0) (not (withinHeap var2 (nthAddrRange var2 var6)))) (is-O_Int (readHeap var8 (nthAddrRange var2 var6)))))))
(assert (forall ((var0 Int) (var1 AddrRange) (var2 AddrRange) (var3 Int) (var4 Int) (var5 Int) (var6 Int) (var7 Int) (var8 Heap)) (not (and (and (inv_main12 var8 var7 var6 var5 var4 var3 var2 var1 var0) (not (is-O_Int (readHeap var8 (nthAddrRange var2 var6))))) (is-O_Int (readHeap var8 (nthAddrRange var2 var6)))))))
(assert (forall ((var0 Int) (var1 AddrRange) (var2 AddrRange) (var3 Int) (var4 Int) (var5 Int) (var6 Int) (var7 Int) (var8 Heap)) (not (and (inv_main13 var8 var7 var6 var5 var4 var3 var2 var1 var0) (not (is-O_Int (readHeap var8 (nthAddrRange var1 var6))))))))
(assert (forall ((var0 Int) (var1 AddrRange) (var2 AddrRange) (var3 Int) (var4 Int) (var5 Int) (var6 Int) (var7 Int) (var8 Heap)) (not (and (and (inv_main13 var8 var7 var6 var5 var4 var3 var2 var1 var0) (not (withinHeap var1 (nthAddrRange var1 var6)))) (is-O_Int (readHeap var8 (nthAddrRange var1 var6)))))))
(assert (forall ((var0 Int) (var1 AddrRange) (var2 AddrRange) (var3 Int) (var4 Int) (var5 Int) (var6 Int) (var7 Int) (var8 Heap)) (not (and (and (inv_main13 var8 var7 var6 var5 var4 var3 var2 var1 var0) (not (is-O_Int (readHeap var8 (nthAddrRange var1 var6))))) (is-O_Int (readHeap var8 (nthAddrRange var1 var6)))))))
(assert (forall ((var0 Int) (var1 Int) (var2 AddrRange) (var3 AddrRange) (var4 Int) (var5 Int) (var6 Int) (var7 Int) (var8 Int) (var9 Heap)) (not (and (inv_main19 var9 var8 var7 var6 var5 var4 var3 var2 var1 var0) (not (is-O_Int (readHeap var9 (nthAddrRange var2 var0))))))))
(assert (forall ((var0 Int) (var1 Int) (var2 AddrRange) (var3 AddrRange) (var4 Int) (var5 Int) (var6 Int) (var7 Int) (var8 Int) (var9 Heap)) (not (and (and (inv_main19 var9 var8 var7 var6 var5 var4 var3 var2 var1 var0) (not (withinHeap var2 (nthAddrRange var2 var0)))) (is-O_Int (readHeap var9 (nthAddrRange var2 var0)))))))
(assert (forall ((var0 Int) (var1 Int) (var2 Int) (var3 AddrRange) (var4 Int) (var5 Int) (var6 AddrRange) (var7 AddrRange) (var8 Int) (var9 Int) (var10 Int) (var11 Int) (var12 Int) (var13 Heap)) (not (and (inv_main29 var13 var12 var11 var10 var9 var8 var7 var6 var5 var4 var3 var2 var1 var0) (not (is-O_Int (readHeap var13 (nthAddrRange var3 var0))))))))
(assert (forall ((var0 Int) (var1 Int) (var2 Int) (var3 AddrRange) (var4 Int) (var5 Int) (var6 AddrRange) (var7 AddrRange) (var8 Int) (var9 Int) (var10 Int) (var11 Int) (var12 Int) (var13 Heap)) (not (and (and (inv_main29 var13 var12 var11 var10 var9 var8 var7 var6 var5 var4 var3 var2 var1 var0) (not (withinHeap var3 (nthAddrRange var3 var0)))) (is-O_Int (readHeap var13 (nthAddrRange var3 var0)))))))
(assert (forall ((var0 Int) (var1 Int) (var2 AddrRange) (var3 AddrRange) (var4 Int) (var5 Int) (var6 Int) (var7 Int) (var8 Int) (var9 Heap)) (not (and (inv_main21 var9 var8 var7 var6 var5 var4 var3 var2 var1 var0) (not (is-O_Int (readHeap var9 (nthAddrRange var2 var0))))))))
(assert (forall ((var0 Int) (var1 Int) (var2 AddrRange) (var3 AddrRange) (var4 Int) (var5 Int) (var6 Int) (var7 Int) (var8 Int) (var9 Heap)) (not (and (and (inv_main21 var9 var8 var7 var6 var5 var4 var3 var2 var1 var0) (not (withinHeap var2 (nthAddrRange var2 var0)))) (is-O_Int (readHeap var9 (nthAddrRange var2 var0)))))))
(assert (forall ((var0 Int) (var1 Int) (var2 AddrRange) (var3 Int) (var4 Int) (var5 AddrRange) (var6 AddrRange) (var7 Int) (var8 Int) (var9 Int) (var10 Int) (var11 Int) (var12 Heap)) (not (and (inv_main34 var12 var11 var10 var9 var8 var7 var6 var5 var4 var3 var2 var1 var0) (not (is-O_Int (readHeap var12 (nthAddrRange var2 var1))))))))
(assert (forall ((var0 Int) (var1 Int) (var2 AddrRange) (var3 Int) (var4 Int) (var5 AddrRange) (var6 AddrRange) (var7 Int) (var8 Int) (var9 Int) (var10 Int) (var11 Int) (var12 Heap)) (not (and (and (inv_main34 var12 var11 var10 var9 var8 var7 var6 var5 var4 var3 var2 var1 var0) (not (withinHeap var2 (nthAddrRange var2 var1)))) (is-O_Int (readHeap var12 (nthAddrRange var2 var1)))))))
(assert (forall ((var0 Int) (var1 Int) (var2 AddrRange) (var3 Int) (var4 Int) (var5 AddrRange) (var6 AddrRange) (var7 Int) (var8 Int) (var9 Int) (var10 Int) (var11 Int) (var12 Heap)) (not (and (and (inv_main34 var12 var11 var10 var9 var8 var7 var6 var5 var4 var3 var2 var1 var0) (not (is-O_Int (readHeap var12 (nthAddrRange var2 var1))))) (is-O_Int (readHeap var12 (nthAddrRange var2 var1)))))))
(assert (forall ((var0 Int) (var1 Int) (var2 AddrRange) (var3 AddrRange) (var4 Int) (var5 Int) (var6 Int) (var7 Int) (var8 Int) (var9 Heap)) (not (and (inv_main40 var9 var8 var7 var6 var5 var4 var3 var2 var1 var0) (not (is-O_Int (readHeap var9 (nthAddrRange var3 var7))))))))
(assert (forall ((var0 Int) (var1 Int) (var2 AddrRange) (var3 AddrRange) (var4 Int) (var5 Int) (var6 Int) (var7 Int) (var8 Int) (var9 Heap)) (not (and (and (inv_main40 var9 var8 var7 var6 var5 var4 var3 var2 var1 var0) (not (withinHeap var3 (nthAddrRange var3 var7)))) (is-O_Int (readHeap var9 (nthAddrRange var3 var7)))))))
(assert (forall ((var0 Int) (var1 Int) (var2 AddrRange) (var3 AddrRange) (var4 Int) (var5 Int) (var6 Int) (var7 Int) (var8 Int) (var9 Heap)) (not (and (inv_main51 var9 var8 var7 var6 var5 var4 var3 var2 var1 var0) (not (is-O_Int (readHeap var9 (nthAddrRange var3 (+ var7 1)))))))))
(assert (forall ((var0 Int) (var1 Int) (var2 AddrRange) (var3 AddrRange) (var4 Int) (var5 Int) (var6 Int) (var7 Int) (var8 Int) (var9 Heap)) (not (and (and (inv_main51 var9 var8 var7 var6 var5 var4 var3 var2 var1 var0) (not (withinHeap var3 (nthAddrRange var3 (+ var7 1))))) (is-O_Int (readHeap var9 (nthAddrRange var3 (+ var7 1))))))))
(assert (forall ((var0 Int) (var1 Int) (var2 Int) (var3 AddrRange) (var4 AddrRange) (var5 Int) (var6 Int) (var7 Int) (var8 Int) (var9 Int) (var10 Heap)) (not (and (inv_main54 var10 var9 var8 var7 var6 var5 var4 var3 var2 var1 var0) (not (is-O_Int (readHeap var10 (nthAddrRange var4 var8))))))))
(assert (forall ((var0 Int) (var1 Int) (var2 Int) (var3 AddrRange) (var4 AddrRange) (var5 Int) (var6 Int) (var7 Int) (var8 Int) (var9 Int) (var10 Heap)) (not (and (and (inv_main54 var10 var9 var8 var7 var6 var5 var4 var3 var2 var1 var0) (not (withinHeap var4 (nthAddrRange var4 var8)))) (is-O_Int (readHeap var10 (nthAddrRange var4 var8)))))))
(assert (forall ((var0 Int) (var1 Int) (var2 Int) (var3 AddrRange) (var4 AddrRange) (var5 Int) (var6 Int) (var7 Int) (var8 Int) (var9 Int) (var10 Heap)) (not (and (and (inv_main54 var10 var9 var8 var7 var6 var5 var4 var3 var2 var1 var0) (not (is-O_Int (readHeap var10 (nthAddrRange var4 var8))))) (is-O_Int (readHeap var10 (nthAddrRange var4 var8)))))))
(assert (forall ((var0 Int) (var1 Int) (var2 AddrRange) (var3 AddrRange) (var4 Int) (var5 Int) (var6 Int) (var7 Int) (var8 Int) (var9 Heap)) (not (and (inv_main58 var9 var8 var7 var6 var5 var4 var3 var2 var1 var0) (not (is-O_Int (readHeap var9 (nthAddrRange var3 var7))))))))
(assert (forall ((var0 Int) (var1 Int) (var2 AddrRange) (var3 AddrRange) (var4 Int) (var5 Int) (var6 Int) (var7 Int) (var8 Int) (var9 Heap)) (not (and (inv_main58 var9 var8 var7 var6 var5 var4 var3 var2 var1 var0) (not (withinHeap var3 (nthAddrRange var3 var7)))))))
(assert (forall ((var0 Int) (var1 Int) (var2 AddrRange) (var3 AddrRange) (var4 Int) (var5 Int) (var6 Int) (var7 Int) (var8 Int) (var9 Heap)) (not (and (inv_main58 var9 var8 var7 var6 var5 var4 var3 var2 var1 var0) (not (is-O_Int (readHeap var9 (nthAddrRange var3 var7))))))))
(assert (forall ((var0 Int) (var1 Int) (var2 AddrRange) (var3 AddrRange) (var4 Int) (var5 Int) (var6 Int) (var7 Int) (var8 Int) (var9 Heap)) (not (and (and (inv_main58 var9 var8 var7 var6 var5 var4 var3 var2 var1 var0) (not (withinHeap var3 (nthAddrRange var3 var7)))) (is-O_Int (readHeap var9 (nthAddrRange var3 var7)))))))
(assert (forall ((var0 Int) (var1 Int) (var2 AddrRange) (var3 AddrRange) (var4 Int) (var5 Int) (var6 Int) (var7 Int) (var8 Int) (var9 Heap)) (not (and (and (inv_main58 var9 var8 var7 var6 var5 var4 var3 var2 var1 var0) (= (getInt (readHeap var9 (nthAddrRange var3 var7))) var1)) (is-O_Int (readHeap var9 (nthAddrRange var3 var7)))))))
(check-sat)
